DIMENSION: 18
EDGE_WEIGHT_TYPE: EXPLICIT
EDGE_WEIGHT_FORMAT: FULL_MATRIX
EDGE_WEIGHT_SECTION:
32767 32767 41 63 32767 32767 87 32767 32767 45 81 16 32767 36 41 37 32767 51 
32767 32767 36 15 32767 7 32767 32767 32767 32767 32767 35 84 74 82 32767 32767 32767 
41 36 32767 88 84 32767 78 32767 13 32767 32767 32767 32767 32767 32767 67 10 6 
63 15 88 32767 96 10 32767 32767 74 26 32767 32767 32767 55 32767 32767 32767 32767 
32767 32767 84 96 32767 32767 32767 57 3 32767 32767 49 32767 32767 32767 32767 32767 32767 
32767 7 32767 10 32767 32767 33 64 32767 32767 32767 81 32767 18 32767 72 65 32767 
87 32767 78 32767 32767 33 32767 32767 32767 32767 90 32767 32767 90 52 32767 43 32767 
32767 32767 32767 32767 57 64 32767 32767 58 32767 32767 32767 10 32767 80 15 12 32767 
32767 32767 13 74 3 32767 32767 58 32767 32767 32767 32767 32767 32767 41 32767 32767 1 
45 32767 32767 26 32767 32767 32767 32767 32767 32767 87 32767 76 70 53 32767 14 81 
81 32767 32767 32767 32767 32767 90 32767 32767 87 32767 25 43 32767 32 32767 32767 32767 
16 35 32767 32767 49 81 32767 32767 32767 32767 25 32767 32767 1 79 28 32767 32767 
32767 84 32767 32767 32767 32767 32767 10 32767 76 43 32767 32767 32767 32767 71 32767 75 
36 74 32767 55 32767 18 90 32767 32767 70 32767 1 32767 32767 32767 88 32767 32767 
41 82 32767 32767 32767 32767 52 80 41 53 32 79 32767 32767 32767 8 32767 32767 
37 32767 67 32767 32767 72 32767 15 32767 32767 32767 28 71 88 8 32767 32767 6 
32767 32767 10 32767 32767 65 43 12 32767 14 32767 32767 32767 32767 32767 32767 32767 32767 
51 32767 6 32767 32767 32767 32767 32767 1 81 32767 32767 75 32767 32767 6 32767 32767 
EOF